StudentsNr = 10;
InstructorsNr = 18;
DaysNr = 1;
SlotsPerDay = 10;
AvailabilitySlotsLenght = 1;
RoomNr = 2;
ProgrammNr = 2;
DegreeNr = 2;
RolesNr = 2;
CoursesNr = 6;
InstructorsProgramm = [{2}, {1}, {1}, {2}, {2}, {1, 2}, {2}, {2}, {1, 2}, {2}, {2}, {2}, {1, 2}, {1}, {2}, {2}, {1, 2}, {2}];
InstructorRolesPerProgramm = [|{2, 3, 9}, {2, 3, 6, 13, 14, 17}|{8, 9, 11, 15}, {6, 7, 8, 11, 13, 17, 18}|];
InstructorsAvailability = [|1, 1, 1, 1, 1, 1, 1, 1, 1, 1, |1, 1, 1, 1, 0, 1, 1, 1, 1, 0, |1, 1, 1, 1, 1, 1, 1, 1, 1, 1, |1, 1, 1, 0, 0, 1, 1, 1, 1, 1, |0, 0, 0, 1, 1, 1, 1, 1, 1, 0, |0, 1, 0, 0, 0, 0, 1, 0, 1, 1, |0, 0, 1, 1, 1, 1, 1, 1, 1, 0, |1, 0, 1, 1, 1, 1, 1, 1, 1, 1, |1, 1, 1, 1, 1, 1, 1, 1, 1, 1, |1, 1, 1, 1, 1, 1, 1, 1, 1, 1, |0, 0, 1, 1, 1, 1, 1, 1, 1, 1, |1, 1, 1, 1, 1, 1, 1, 1, 1, 1, |0, 0, 0, 1, 1, 1, 1, 0, 0, 0, |0, 0, 0, 1, 1, 1, 0, 1, 1, 1, |1, 1, 1, 1, 0, 0, 1, 1, 1, 1, |0, 1, 1, 1, 1, 1, 1, 1, 1, 1, |1, 0, 0, 0, 1, 1, 1, 1, 1, 1, |1, 1, 1, 1, 1, 1, 1, 1, 1, 0|];
StudentsProgramm = [1, 2, 2, 1, 1, 2, 2, 2, 1, 1];
StudentsDegree = [1, 2, 2, 1, 2, 1, 1, 2, 2, 2];
StudentsSupervisorId = [2, 1, 18, 17, 17, 4, 1, 17, 14, 3];
StudentsCourseIds = [{1, 2, 4, 5, 6}, {1, 2, 5, 6}, {1, 4, 5, 6}, {1, 2, 3, 5, 6}, {2, 3, 4, 6}, {1, 3, 4, 5, 6}, {1, 3, 4, 5, 6}, {1, 2, 3, 4}, {2, 3, 4, 6}, {1, 3, 4, 5}];
StudentsAvailability = [|0, 1, 1, 1, 1, 1, 0, 0, 1, 1, |1, 1, 1, 1, 1, 1, 1, 1, 1, 1, |0, 1, 1, 1, 1, 1, 1, 1, 0, 0, |1, 1, 1, 1, 1, 0, 1, 1, 1, 1, |1, 1, 1, 1, 1, 1, 1, 1, 1, 1, |0, 1, 1, 1, 1, 1, 1, 1, 1, 1, |1, 1, 1, 0, 1, 1, 1, 1, 1, 1, |1, 1, 1, 1, 1, 1, 1, 1, 1, 1, |0, 1, 1, 1, 0, 0, 1, 0, 1, 1, |1, 1, 1, 1, 1, 1, 1, 1, 1, 1|];
TheoryticalMinCard = [0, 0, 0, 0, 0, 0, 0, 0, 0, 0];
CoursesInstructorIds = [{3, 4, 6, 7, 8, 10, 18}, {1, 2, 4, 7, 9, 10, 12}, {2, 3, 4, 5, 7, 8, 10, 11, 17, 18}, {1, 2, 4, 6, 7, 11, 12, 13, 14, 15, 18}, {6, 7, 8, 11, 15, 16}, {2, 3, 6, 7, 9, 11, 13, 15, 17}];
RolesDemands = [1, 5];
RolesContinuity = [];
ExamLen = [2, 1, 1, 2, 1, 2, 2, 1, 1, 1];
LunchTsMinLen = 1;
LunchStarts = [4..6];
SupervisorAvailable = 5;
OptimalLunchLenght = [2, 1];
OptimalStartTs = [2, 0];
OptimalFinishTs = [0, 10];
MinimizeRooms = 0;
RolesSoftContinuity = [|1, 2|4, 4|];
SameDegreeInRoom = 20;
Mergeability = 0;
